NAME: test1652
TYPE: TSP
DIMENSION: 11
EDGE_WEIGHT_TYPE: EUC_2D
NODE_COORD_SECTION
1 68.67158677045019 31.247874255492224
2 98.66672285326878 94.37819113190821
3 27.120544249426803 10.47955421056076
4 56.70703889270741 75.37706206810932
5 91.83372903172236 10.722403313082719
6 58.637029280995655 59.679915737720016
7 3.9736646581777224 37.05994429313563
8 41.94507955449986 9.345440082921918
9 59.984876782350206 40.20334447608258
10 62.409876345204616 5.049211881045245
11 37.96357790341709 11.829347214927722
EOF
